1,38574,34080,18138,19092,42621,39175,32390,30823,42520,13939,48420,28125,3517,7384,40906,14250,22219,36302,50576,39981,40184,44530,13403,38200,4266,24590,40433,39569,14912,49962,47195,12410,6682,691,12270,13620,23018,42254,34070,5811,37614,45824,30283,32911,36730,5521,41838,20884,4105,11942,2449,27197,45987,14124,16960,34433,43450,47242,29906,46539,49899,38466,24293,9603,5201,24,32225,36742,3802,37398,22650,25959,18864,615,3662,6331,3771,41044,33951,46857,
2,24,24,615,691,615,691,24,24,6881,6660,7668,950,2851,3564,2924,6660,7668,545,599,924,950,4449,4580,3564,784,5967,399,2615,2183,11403,1340,909,4088,1677,9294,1746,3476,399,6555,865,8254,1340,2926,2873,3015,5943,4730,1882,2914,4337,784,356,1793,6555,2879,2183,1793,2926,4125,1882,7940,2295,784,4118,8935,1266,2684,3672,909,2926,15157,146,28744,4107,17030,18685,1085,26692,24934,8710,
3,24,24,146,146,399,399,24,24,615,1419,1285,1604,2354,1653,2579,599,1024,1147,1960,856,399,1653,1210,399,146,1169,2096,1169,2054,1147,856,10547,784,399,1604,1147,3011,399,1147,1756,180,180,10547,2529,1798,1604,902,524,2732,1147,146,1385,524,1205,4975,1604,1385,1013,655,1193,180,180,4580,399,315,1301,356,1163,5637,784,2926,2295,13354,1786,24948,18117,2256,2620,43498,2160,
4,24,24,146,146,146,146,24,24,1222,1429,399,1301,146,399,399,399,146,599,1301,180,180,655,399,146,180,399,399,146,553,1205,399,146,399,146,399,599,1604,399,1325,1604,1147,399,280,399,146,180,599,146,146,146,1325,399,399,146,399,1022,399,146,655,180,1222,1205,399,146,180,606,399,606,399,399,146,146,55595,3020,1207,16919,146,2458,7282,29786,
5,24,24,146,146,146,146,24,24,399,696,146,146,146,655,146,146,146,146,146,1604,146,146,146,519,519,180,3191,146,399,399,146,280,146,146,399,146,146,695,2697,180,399,180,146,696,399,146,399,146,399,399,146,2436,2238,146,399,146,146,146,146,146,399,399,399,146,146,146,146,180,146,399,1153,696,146,37182,146,47514,25933,146,146,7177,
6,24,24,146,146,146,146,24,24,519,146,146,146,146,146,146,146,146,146,146,180,146,146,146,146,146,146,146,146,146,146,146,146,146,146,146,146,146,146,146,146,146,146,146,146,146,146,146,146,146,146,146,146,146,146,146,146,146,146,146,146,146,146,146,146,146,146,146,146,146,146,146,146,38567,20077,23234,50167,146,57152,50330,146,
7,24,24,146,146,146,146,24,24,146,146,146,146,146,146,146,146,146,146,146,146,146,146,146,146,146,146,146,146,146,146,146,146,146,146,146,146,146,146,146,146,146,146,146,146,146,146,146,146,146,146,146,146,146,146,146,146,146,146,146,146,146,146,146,146,146,146,146,146,146,146,146,146,146,41079,26270,27332,19352,40897,41975,5205,
8,24,24,146,146,146,146,24,24,146,146,146,146,146,146,146,146,146,146,146,146,146,146,146,146,146,146,146,146,146,146,146,146,146,146,146,146,146,146,146,146,146,146,146,146,146,146,146,146,146,146,146,146,146,146,146,146,146,146,146,146,146,146,146,146,146,146,146,146,146,146,146,146,146,146,146,146,146,146,146,54428,
9,24,24,146,146,146,146,24,24,146,146,146,146,146,146,146,146,146,146,146,146,146,146,146,146,146,146,146,146,146,146,146,146,146,146,146,146,146,146,146,146,146,146,146,146,146,146,146,146,146,146,146,146,146,146,146,146,146,146,146,146,146,146,146,146,146,146,146,146,146,146,146,146,146,146,146,44193,57941,36903,41859,14002,
10,24,24,146,146,146,146,24,24,146,146,146,146,146,146,146,146,146,146,146,26588,146,146,146,146,146,146,146,146,146,146,146,146,146,146,146,146,146,146,146,146,146,146,146,146,146,146,146,146,146,146,146,146,146,146,146,146,146,146,146,146,146,146,146,146,146,146,146,146,146,146,146,146,47615,19594,43552,146,146,45233,52834,146,
11,24,24,146,146,146,146,24,24,146,146,146,146,146,146,146,146,146,146,146,146,146,146,146,146,146,146,146,146,146,146,146,146,146,146,146,146,146,146,146,146,146,146,146,146,146,146,146,146,146,146,146,146,146,146,146,146,146,146,146,146,146,146,146,146,146,146,146,146,146,146,146,146,41654,146,146,146,146,39126,17655,24809,
12,24,24,146,146,146,146,24,24,146,146,146,146,146,146,146,146,146,146,146,146,146,146,146,146,146,146,146,146,146,146,146,146,146,146,146,146,146,146,146,146,146,146,146,146,146,146,146,146,146,146,146,146,146,146,146,146,146,146,146,146,146,146,146,146,146,146,146,146,146,146,146,146,34519,146,39519,146,9957,36478,49321,37103,
13,24,24,146,146,146,146,24,24,146,146,146,146,146,146,146,146,146,146,146,146,146,146,146,146,146,146,146,146,146,146,146,146,146,146,146,146,146,146,146,146,146,146,146,146,146,146,146,146,146,146,146,146,146,146,146,146,146,146,146,146,146,146,146,146,146,146,146,146,146,146,146,146,42826,146,146,22219,34079,3505,29906,146,
14,24,24,146,146,146,146,24,24,146,146,146,146,146,146,146,146,146,146,146,146,146,146,146,146,146,146,146,146,146,146,146,146,146,146,146,146,146,146,146,146,146,146,146,146,146,146,146,146,146,146,146,146,146,146,146,146,146,146,146,146,146,146,146,146,146,146,146,146,146,146,146,146,146,146,146,46839,146,7647,59710,16953,
15,24,24,146,146,146,146,24,24,146,146,146,146,146,146,146,146,146,146,146,146,146,146,146,146,146,146,146,146,146,146,146,146,146,146,146,146,146,146,146,146,146,146,146,146,146,146,146,146,146,146,146,146,146,146,146,146,146,146,146,146,146,146,146,146,3433,146,146,146,146,146,146,146,41437,41886,46452,55489,46678,146,146,146,
16,24,24,146,146,146,146,24,24,146,146,146,146,146,146,146,146,146,146,146,146,146,146,146,146,146,146,8060,146,146,146,146,146,146,146,146,146,146,146,146,146,146,146,146,146,146,146,146,146,146,146,146,8060,146,146,146,146,146,146,146,146,146,146,146,146,146,146,146,146,146,146,146,146,8465,56467,55812,21013,50547,146,146,37943,
17,24,24,146,146,146,146,24,24,146,146,146,146,146,146,146,146,146,146,146,146,146,146,146,146,146,146,146,146,146,146,146,146,146,146,146,146,146,146,146,146,146,146,146,146,146,146,146,146,146,146,146,146,146,146,146,146,146,146,146,146,146,146,146,146,146,146,146,146,146,146,146,146,7297,34991,16183,146,146,45021,146,146,
18,24,24,146,146,146,146,24,24,146,146,146,146,146,146,146,146,146,146,146,146,146,146,146,146,146,146,146,146,146,146,146,146,146,146,146,146,146,146,146,146,146,146,146,146,146,146,146,146,146,146,146,146,146,146,146,146,146,146,146,146,146,146,146,146,146,146,146,146,146,146,146,1787,26452,35582,18852,7455,45326,146,53678,146,
19,24,24,146,146,146,146,24,24,146,146,146,146,146,146,16432,146,146,146,146,146,146,146,146,146,146,146,16432,146,146,146,146,146,146,146,146,146,146,146,146,146,146,146,146,146,146,146,146,146,146,146,146,16432,146,146,146,146,146,146,146,146,146,146,146,146,146,146,146,146,146,146,146,146,16212,4980,146,30840,42135,51554,50322,21926,
20,24,24,146,146,146,146,24,24,146,146,146,146,146,146,146,146,146,146,146,146,146,146,146,146,146,146,146,146,146,146,146,146,146,146,146,146,146,146,146,146,146,146,146,146,146,146,146,146,146,146,146,146,146,146,146,146,146,146,146,146,146,146,146,146,146,146,146,146,146,146,146,146,53912,32051,146,146,5169,47585,33972,146,
21,24,24,146,146,146,146,24,24,146,146,146,146,146,146,146,146,146,146,146,146,146,146,146,146,146,146,146,146,146,146,146,146,146,146,146,146,146,146,146,146,146,146,146,146,146,146,146,15289,146,146,146,146,146,146,146,146,146,146,146,146,146,146,146,146,146,146,146,146,146,146,146,146,24147,36048,146,146,39216,146,146,12875,
22,24,24,146,146,146,146,24,24,146,146,146,146,146,146,146,146,146,146,146,146,146,146,146,146,146,146,146,146,146,146,146,146,146,146,146,146,146,146,146,146,146,146,146,146,146,146,146,146,146,146,146,146,146,146,146,146,146,146,146,146,146,146,146,146,146,146,146,146,146,146,146,146,146,32963,146,146,49964,41631,42575,45543,
23,24,24,146,146,146,146,24,24,146,146,146,146,146,146,146,146,146,146,146,146,146,146,146,146,146,146,146,146,146,146,146,146,146,146,146,146,146,146,146,146,146,146,146,146,146,146,146,146,146,146,146,146,146,146,146,146,146,146,146,146,146,146,146,146,146,146,146,146,146,146,146,146,146,9094,146,5940,146,13816,37691,35521,
24,24,24,146,146,146,146,24,24,146,146,146,146,146,146,146,146,146,146,146,146,146,146,146,146,146,146,146,146,146,146,146,146,146,146,146,146,146,146,146,146,146,146,146,146,146,146,146,146,146,146,146,146,146,146,146,146,146,146,146,146,146,146,146,146,146,146,146,146,146,146,146,146,42137,17563,8423,146,59894,49012,146,146,
25,24,24,146,146,146,146,24,24,146,146,146,146,146,146,146,146,146,146,146,146,146,146,146,146,146,146,146,146,146,146,146,146,146,146,146,146,146,146,146,146,146,146,146,146,146,146,146,146,146,146,146,146,146,146,146,146,146,146,146,146,146,146,146,146,146,146,146,146,146,146,146,146,146,52058,49887,146,44809,146,42629,39924,
26,24,24,146,146,146,146,24,24,146,146,146,146,146,146,146,146,146,146,146,146,146,146,146,146,146,146,146,146,146,146,146,146,146,146,146,146,146,146,146,146,146,146,146,146,146,146,146,146,146,146,146,146,146,146,146,146,146,146,146,146,146,146,146,146,146,146,146,146,146,146,146,146,51545,49512,13469,34865,53141,8432,146,146,
27,24,24,146,146,146,146,24,24,146,146,146,146,146,146,146,146,146,146,146,146,146,146,146,146,146,146,146,146,146,146,146,146,146,146,146,146,146,146,146,146,146,146,146,146,146,146,146,146,146,146,146,146,146,146,146,146,146,146,146,146,146,146,146,146,146,146,146,146,146,3371,146,146,30212,50432,146,49639,146,146,52675,146,
28,24,24,146,146,146,146,24,24,146,146,146,146,146,146,146,146,146,146,146,146,146,146,146,146,146,146,146,146,146,146,146,146,146,146,146,146,146,146,146,146,146,146,146,146,146,146,146,146,10518,146,146,146,146,146,146,146,146,146,146,146,146,146,146,146,146,146,146,146,146,146,146,146,59156,46976,146,26377,43336,42600,27227,57484,
29,24,24,146,146,146,146,24,24,146,22802,22802,146,146,146,146,146,146,146,146,146,146,146,146,146,146,146,146,146,146,146,146,146,146,146,146,146,146,146,15604,146,146,146,146,15604,15604,146,146,146,146,146,146,146,146,146,146,146,146,146,146,146,146,146,146,146,146,15604,146,146,146,146,146,146,44625,146,13727,32138,54359,29673,32116,52503,
30,24,24,146,146,146,146,24,24,146,146,146,146,146,146,146,146,146,146,146,146,146,146,146,146,146,146,146,146,146,146,146,146,146,146,146,146,146,146,146,146,146,146,146,146,146,146,146,146,146,146,146,146,146,146,146,146,146,146,146,146,146,146,146,146,146,146,146,146,146,146,146,146,146,146,51464,146,146,44687,39416,35228,
31,24,24,146,146,146,146,24,24,146,146,146,146,146,146,146,146,146,146,146,146,146,146,146,146,146,146,146,146,146,146,146,146,146,146,146,146,146,146,146,146,146,146,146,146,146,146,146,146,146,146,146,146,146,146,146,146,146,146,146,146,146,146,146,146,146,146,146,146,146,146,146,146,28317,15077,12339,14696,45157,34483,146,38941,
32,24,24,146,146,146,146,24,24,146,146,146,146,146,146,146,146,146,146,146,146,146,146,146,146,146,146,146,146,146,146,146,146,146,146,146,146,146,146,146,146,146,146,146,146,146,146,146,146,146,146,146,146,146,146,146,146,146,146,146,146,146,146,146,146,146,146,146,146,146,146,146,146,41471,11489,17215,35216,33740,31310,53561,14705,
33,24,24,146,146,146,146,24,24,146,146,146,146,146,146,146,146,146,146,146,146,146,146,146,146,146,146,146,146,146,146,146,146,146,146,146,146,146,146,146,146,146,146,146,146,146,146,146,146,146,146,146,146,146,146,146,146,146,146,146,146,146,146,146,146,146,146,146,146,146,146,146,146,48260,146,146,146,146,44523,36391,146,
34,24,24,146,146,146,146,24,24,146,146,146,146,146,146,146,146,146,146,146,146,146,146,146,146,146,146,146,146,146,146,146,146,146,146,146,146,146,146,146,146,146,146,146,146,146,146,146,146,146,146,146,146,146,146,146,146,146,146,146,146,146,146,146,146,146,146,146,146,146,146,146,146,28952,54134,38427,146,31568,146,53503,26360,
35,24,24,146,146,146,146,24,24,146,146,146,146,146,146,146,146,146,146,146,146,146,146,146,146,146,146,146,146,146,146,146,146,146,146,146,146,146,146,146,146,146,146,146,146,146,146,146,146,146,146,146,146,146,146,146,146,146,146,146,146,146,146,146,146,146,146,146,146,146,146,146,146,53244,22274,146,15368,21501,31694,146,45897,
36,24,24,146,146,146,146,24,24,146,146,146,146,146,146,146,146,146,146,146,146,146,146,146,146,146,146,146,146,146,146,146,146,146,146,146,146,146,146,146,146,146,146,146,146,146,146,146,146,146,146,146,146,146,146,146,146,146,146,146,146,146,146,146,146,146,146,146,146,146,146,146,146,146,146,45847,146,146,45227,146,146,
37,24,24,146,146,146,146,24,24,146,146,146,146,146,146,146,146,146,146,146,146,146,146,146,146,146,146,146,146,146,146,146,146,146,146,146,146,146,146,146,146,146,146,146,146,146,146,146,146,146,146,146,146,146,146,146,146,146,146,146,146,146,146,146,146,146,146,146,146,146,146,146,146,49622,49465,46207,146,146,146,48012,41649,
38,24,24,146,146,146,146,24,24,146,146,146,146,146,146,146,146,146,146,146,146,146,146,146,146,146,146,146,146,146,146,146,146,146,146,146,146,146,146,146,146,146,146,146,146,146,146,146,146,146,146,146,146,146,146,146,146,146,146,146,146,146,146,146,146,146,146,146,146,146,146,146,146,146,327,45965,45200,8626,146,146,30133,
39,24,24,146,146,146,146,24,24,146,146,146,146,146,146,146,146,146,146,146,146,146,146,146,146,146,146,146,146,146,146,146,146,146,146,146,146,146,146,146,146,146,146,146,146,146,146,146,146,146,146,146,146,146,146,146,146,146,6956,146,146,146,146,146,146,146,146,146,146,146,146,146,146,33345,46361,146,146,15505,50116,146,44256,
40,24,24,146,146,146,146,24,24,146,146,146,146,146,146,146,146,146,146,146,146,146,146,146,146,146,146,146,146,146,146,146,146,146,146,146,146,146,146,146,146,146,146,146,146,146,146,146,146,146,146,146,146,146,146,146,146,146,146,146,146,146,146,146,146,146,146,146,146,146,146,146,146,146,3109,146,49235,32462,57103,11031,23452,
41,24,24,146,146,146,146,24,24,146,146,146,146,146,146,146,146,146,146,146,146,146,146,146,146,146,146,146,146,146,146,146,146,146,146,146,146,146,146,146,146,146,146,146,146,146,146,146,146,146,146,146,146,146,146,146,146,146,146,146,146,146,146,146,146,146,146,146,146,146,146,146,146,10887,146,146,42289,44206,146,12732,146,
42,24,24,146,146,146,146,24,24,146,146,146,146,146,146,146,146,146,146,146,146,146,146,146,146,146,146,146,146,146,146,146,146,146,146,146,146,146,146,146,146,146,146,146,146,146,146,146,146,146,146,146,146,146,146,146,146,146,146,146,146,146,146,146,146,146,146,146,146,146,146,146,146,146,37287,146,8102,146,45831,13292,47154,
43,24,24,146,146,146,146,24,24,146,146,146,146,146,146,146,146,146,146,146,146,146,146,146,146,146,146,146,146,146,146,146,146,146,146,146,146,146,146,146,146,146,146,146,146,146,146,146,146,146,146,146,146,146,146,146,146,146,146,146,146,146,146,146,146,146,146,146,146,146,146,146,146,46897,57760,146,4204,48043,146,146,146,
44,24,24,146,146,146,146,24,24,146,146,146,146,146,146,146,146,146,146,146,146,146,146,146,146,146,146,146,146,146,146,146,146,146,146,146,146,146,146,146,146,146,146,146,146,146,146,146,146,146,146,146,146,146,146,146,146,146,146,146,146,146,146,146,146,146,146,146,146,146,146,146,146,37891,35588,37771,27762,46384,146,46361,146,
45,24,24,146,146,146,146,24,24,146,146,146,146,146,146,146,146,146,146,146,146,146,146,146,146,146,146,146,146,146,146,146,146,146,146,146,146,146,146,146,146,146,146,146,146,146,146,146,146,146,146,146,146,146,146,146,146,146,146,146,146,146,146,146,146,146,146,146,146,146,146,146,146,39463,57069,146,34595,58928,146,47845,17073,
46,24,24,146,146,146,146,24,24,146,146,146,146,146,146,146,146,146,146,146,146,146,146,146,146,146,146,146,146,146,146,146,146,146,146,146,146,146,146,146,146,146,146,146,146,146,146,146,146,146,146,146,146,146,146,146,146,146,146,146,146,146,146,146,146,146,146,146,146,146,146,146,146,18665,146,8490,55812,36034,43847,146,49456,
47,24,24,146,146,146,146,24,24,146,146,146,146,146,146,146,146,146,146,146,146,146,146,146,146,146,146,146,146,146,146,146,146,146,146,146,146,146,146,146,146,146,146,146,146,146,146,146,146,146,146,146,146,146,146,146,146,146,146,146,146,146,146,146,146,146,146,146,146,146,146,146,146,49783,6717,12881,61025,9942,11433,14024,51586,
48,24,24,146,146,146,146,24,24,146,146,146,146,146,146,146,146,146,146,146,146,146,146,146,146,146,146,146,146,146,146,146,146,146,146,146,146,146,146,146,146,146,146,146,146,146,146,146,146,146,146,146,146,146,146,146,146,146,146,146,146,146,146,146,146,146,146,146,146,146,146,146,146,56866,48897,44931,146,11229,11177,13629,146,
49,24,24,146,146,146,146,24,24,146,146,146,146,146,146,146,146,146,146,146,146,146,146,146,146,146,146,146,146,146,146,146,146,146,146,146,146,146,146,146,146,146,146,146,146,146,146,146,146,146,146,146,146,146,146,146,146,146,146,146,146,146,146,146,146,146,146,146,146,146,146,146,146,45460,34022,23745,146,146,146,24202,146,
50,24,24,146,146,146,146,24,24,146,146,146,146,146,146,146,146,146,146,146,146,146,146,146,146,146,146,146,146,146,146,146,146,146,146,146,13839,146,146,146,146,146,146,146,146,146,146,146,146,146,146,146,146,146,146,146,146,146,146,146,146,146,146,146,146,146,146,146,146,146,146,146,146,4431,146,146,23938,31210,146,1992,50304,
51,24,24,146,146,146,146,24,24,146,146,146,146,146,146,146,146,146,146,146,146,146,146,146,146,146,146,146,146,146,146,146,146,146,146,146,146,146,146,146,146,146,146,146,146,146,146,146,146,146,146,146,146,146,146,146,146,146,146,146,146,146,146,146,146,146,146,146,146,146,146,146,146,146,146,40042,146,56209,13979,37095,49231,
52,24,24,146,146,146,146,24,24,146,146,146,146,146,146,146,146,146,146,146,146,146,146,146,146,146,146,146,146,146,146,146,146,146,146,146,146,146,146,146,146,146,146,146,146,146,146,146,146,146,146,146,146,146,146,146,146,146,146,146,146,146,146,146,146,146,146,146,146,146,146,146,146,55851,59609,146,146,34123,41485,146,24393,
53,24,24,146,146,146,146,24,24,146,146,146,146,146,146,146,146,146,146,146,146,146,146,146,146,146,146,146,146,146,146,146,146,146,146,146,146,146,146,146,146,146,146,146,146,146,146,146,146,146,146,146,146,146,146,146,146,146,146,146,146,146,146,146,146,146,146,146,146,146,146,146,146,50311,39106,12798,49907,146,50757,146,50491,
54,24,24,146,146,146,146,24,24,146,146,146,146,146,146,146,146,146,146,146,146,146,146,146,146,146,146,146,146,146,146,146,146,146,146,146,146,146,146,146,146,146,146,146,146,146,146,146,146,146,146,146,146,146,146,146,146,146,146,146,146,146,146,146,146,146,146,146,146,146,146,146,146,13207,37454,146,45250,13517,146,146,146,
55,24,24,146,146,146,146,24,24,146,146,146,146,146,146,146,146,146,146,146,146,146,146,146,146,146,146,146,146,146,146,146,146,146,146,146,146,146,146,146,146,146,146,146,146,146,146,146,146,146,146,146,146,146,146,146,146,146,146,146,146,146,146,146,146,146,146,146,146,146,146,146,146,146,6227,146,48022,1521,146,146,43574,
56,24,24,146,146,146,146,24,24,146,146,146,146,146,146,146,146,146,146,146,146,146,146,146,146,146,146,146,146,146,146,146,146,146,146,146,146,146,146,146,146,146,146,146,146,146,146,146,146,146,146,146,146,146,146,146,146,146,146,146,146,146,146,146,146,146,146,146,146,146,146,146,146,146,146,146,11505,146,146,56491,49186,
57,24,24,146,146,146,146,24,24,146,146,146,146,146,146,146,146,146,146,146,146,146,146,146,146,146,146,146,146,146,146,146,146,146,146,146,146,146,146,146,146,146,146,146,146,146,146,146,146,146,146,146,146,146,146,146,146,146,146,146,146,146,146,146,146,146,146,146,146,146,146,146,146,146,146,146,41103,51237,36829,146,42534,
58,24,24,146,146,146,146,24,24,146,146,146,146,146,146,146,146,146,146,146,146,146,146,146,146,146,146,146,146,146,16522,146,146,146,146,146,146,146,146,146,146,146,146,146,146,16522,146,146,146,146,146,5588,16522,146,146,146,146,146,16522,146,146,146,146,146,146,146,146,146,146,146,146,146,146,146,45728,30538,146,15324,146,146,146,
59,24,24,146,146,146,146,24,24,146,146,146,146,146,146,146,146,146,146,146,146,146,146,146,146,146,146,146,146,146,146,146,146,146,146,146,146,146,146,146,146,146,146,146,146,146,146,146,146,146,146,146,146,146,146,146,146,146,146,146,146,146,146,146,146,146,146,146,146,146,146,146,146,37405,39886,59239,32097,28051,36836,146,57029,
60,24,24,146,146,146,146,24,24,146,146,146,146,146,146,146,146,146,146,146,146,146,146,146,146,146,146,146,146,146,146,146,146,146,146,146,146,146,146,146,146,146,146,146,146,146,146,146,146,146,146,146,146,146,146,146,146,146,146,146,146,146,146,146,146,146,146,146,146,146,146,146,146,146,29841,44691,11734,14719,19929,43362,8773,
61,24,24,146,146,146,146,24,24,146,146,146,146,146,146,146,146,146,146,146,146,146,146,146,146,146,146,146,146,146,146,146,146,146,146,146,146,146,146,146,146,146,146,146,146,146,146,146,146,146,146,146,146,146,146,146,146,146,146,146,146,146,146,146,146,146,146,146,146,146,146,146,146,32731,40999,10180,146,53918,146,14449,146,
62,24,24,146,146,146,146,24,24,146,146,146,146,146,146,146,146,146,146,146,146,146,146,146,146,146,146,146,146,146,146,146,146,146,146,146,146,146,146,146,146,146,146,146,146,146,146,146,146,146,146,146,146,146,146,146,146,146,146,146,146,146,146,146,146,146,146,146,146,146,146,146,146,60416,43106,146,146,28058,146,14166,42755,
63,24,24,146,146,146,146,24,24,146,146,146,146,146,146,146,146,146,146,146,146,146,146,146,146,146,146,146,146,146,146,146,146,146,146,146,146,146,146,146,146,146,146,146,146,146,146,146,146,146,146,146,146,146,146,146,146,146,146,146,146,146,146,146,146,146,146,146,146,146,146,146,146,53858,146,27590,25588,146,146,39563,146,
64,24,24,146,146,146,146,24,24,146,146,146,146,146,146,146,146,146,146,146,146,146,146,146,146,146,146,146,146,146,146,146,146,146,146,146,146,146,146,146,146,146,146,146,146,146,146,146,146,146,146,146,146,146,146,146,146,146,146,146,146,146,146,146,146,146,146,146,146,146,146,146,146,48183,44833,16071,45970,56751,146,146,146,
65,24,24,146,146,146,146,24,24,146,146,146,146,146,146,146,146,146,146,146,146,146,146,146,146,146,146,146,146,146,146,146,146,146,146,146,146,146,146,146,146,146,146,146,146,146,146,146,146,146,146,146,146,146,146,146,146,146,146,146,146,146,146,146,146,146,146,146,146,146,146,146,146,146,146,3882,146,43274,146,41773,146,
66,24,24,146,146,146,146,24,24,146,146,146,146,146,146,146,146,146,146,146,146,146,146,146,146,146,146,146,146,146,146,146,146,146,146,146,146,146,146,146,146,146,146,146,146,146,146,146,146,146,146,146,146,146,146,146,146,146,146,146,146,146,146,146,146,146,146,146,146,146,146,146,146,9903,41529,21688,20376,43638,61193,13569,146,
67,24,24,146,146,146,146,24,24,146,146,146,146,146,146,146,146,146,146,146,146,146,146,146,146,146,146,146,146,146,146,146,146,146,146,146,146,15914,146,146,146,146,146,146,146,146,146,146,146,146,146,146,146,146,146,146,146,146,146,146,146,146,146,146,146,146,146,146,146,146,146,146,146,43495,146,146,13080,5220,146,146,146,
68,24,24,146,146,146,146,24,24,146,146,146,146,146,146,146,146,146,146,146,146,146,146,146,146,146,146,146,146,146,146,146,146,146,146,146,146,146,146,146,146,146,146,146,146,146,146,146,146,146,146,146,146,146,146,146,146,146,146,146,146,146,146,146,146,146,146,146,146,146,146,146,146,55277,42470,57572,52146,146,20883,55966,10608,
69,24,24,146,146,146,146,24,24,146,146,146,146,146,146,146,146,146,146,146,146,146,146,146,146,146,146,146,146,146,146,146,146,146,146,146,146,146,146,146,146,146,146,146,146,146,146,146,146,146,146,146,146,146,146,146,146,146,146,146,146,146,146,146,146,146,146,146,146,146,146,146,146,7455,29787,21211,146,13834,146,146,146,
70,24,24,146,146,146,146,24,24,146,146,146,146,146,146,146,146,146,146,146,146,146,146,146,146,146,146,146,146,146,146,146,146,146,146,146,146,146,146,146,146,146,146,146,146,146,146,146,146,146,146,146,146,146,146,146,146,146,146,146,146,146,146,146,146,146,146,146,146,146,146,146,146,146,146,16764,39065,33909,41686,146,46973,
71,24,24,146,146,146,146,24,24,146,146,146,146,146,146,146,146,146,146,146,146,146,146,146,146,146,146,146,146,146,146,146,146,146,146,146,146,146,146,146,146,146,146,146,146,146,146,146,146,146,146,146,146,146,146,146,146,146,146,146,146,146,146,146,146,146,146,146,146,146,146,146,146,11431,21095,146,33419,29184,146,44936,146,
72,24,24,146,146,146,146,24,24,146,146,146,146,146,146,146,4946,146,146,146,146,146,146,146,146,146,146,146,146,146,146,146,146,146,146,146,146,146,146,146,146,146,146,146,146,146,146,146,146,146,146,146,146,146,146,146,146,146,146,146,146,146,146,146,146,146,146,146,146,146,4946,146,146,28582,1788,25878,45086,32520,41145,45278,58749,
73,24,24,146,146,146,146,24,24,146,146,146,146,146,146,146,146,146,146,146,146,146,146,146,146,146,146,146,146,146,146,146,146,146,146,146,146,146,146,146,146,146,146,146,146,146,146,146,146,146,146,146,146,146,146,146,146,146,146,146,146,146,146,146,146,146,146,146,146,146,146,146,146,46630,146,146,46974,27384,2030,146,20863,
74,24,24,146,146,146,146,24,24,146,146,146,146,146,146,146,146,146,146,146,146,146,146,146,146,146,146,146,146,146,146,146,146,146,146,10047,146,146,146,146,146,146,146,146,146,146,146,146,146,146,146,146,10047,146,146,146,146,146,146,146,146,146,146,146,146,146,146,146,146,146,146,10047,146,48432,18596,30222,44855,33065,40744,47249,44944,
75,24,24,146,146,146,146,24,24,146,146,146,146,146,146,146,146,146,146,146,146,146,146,146,146,146,146,146,146,146,146,146,146,146,146,146,146,146,146,146,146,146,146,146,146,146,146,146,146,146,146,146,146,146,146,146,146,146,146,146,146,146,146,146,146,146,146,146,146,146,146,146,146,52775,37248,39355,43303,40961,146,146,10327,
76,24,24,146,146,146,146,24,24,146,146,146,146,146,146,146,146,146,146,146,146,146,146,146,146,146,146,146,146,146,146,146,146,146,146,146,146,146,146,146,146,146,146,146,146,146,146,146,146,146,146,146,146,146,146,146,146,146,146,146,146,146,146,146,146,146,146,146,146,146,146,146,146,49222,45488,3055,21617,146,49531,146,13633,
77,24,24,146,146,146,146,24,24,146,146,146,146,146,146,146,146,146,146,146,146,146,146,146,146,146,146,146,146,146,146,4696,146,146,146,146,146,146,146,146,146,146,146,146,146,146,146,146,146,146,146,146,146,146,146,146,146,146,146,146,146,146,146,146,146,146,146,146,146,146,146,146,146,45724,15844,13133,48591,38858,9382,146,15940,
78,24,24,146,146,146,146,24,24,146,146,146,146,146,146,146,146,146,146,146,146,146,146,146,146,146,146,146,146,146,146,146,146,146,146,146,146,146,146,146,146,146,146,146,146,146,146,146,146,146,146,146,146,146,146,146,146,146,146,146,146,146,146,146,146,146,146,146,146,146,146,146,146,58309,25388,36351,146,39076,50022,29328,146,
79,24,24,146,146,146,146,24,24,146,146,146,146,146,146,146,146,146,146,146,146,146,146,146,146,146,146,146,146,146,146,146,146,146,146,146,146,146,146,146,146,146,146,146,146,146,146,146,146,146,146,146,146,146,146,146,146,146,146,146,146,146,146,146,146,146,146,146,146,146,146,146,146,29654,39780,146,146,57196,465,146,44014,
80,24,24,146,146,146,146,24,24,146,146,146,146,1878,146,146,146,146,1878,146,146,146,146,146,146,146,146,146,146,146,146,146,146,146,146,146,146,146,146,146,146,146,146,1878,146,146,146,146,146,146,146,146,146,146,146,146,146,146,146,146,1878,146,146,146,146,146,146,146,146,146,146,146,146,146,36283,33737,43356,17368,146,23906,146,
81,24,24,146,146,146,146,24,24,146,146,146,146,146,146,146,146,146,146,146,146,146,146,146,146,146,146,146,146,146,146,146,146,146,146,146,146,146,146,146,146,146,146,146,146,146,146,146,146,146,146,146,146,146,146,146,146,146,146,146,146,146,146,146,146,146,146,146,146,146,146,146,146,51507,24055,43857,17197,146,146,146,8789,
82,24,24,146,146,146,146,24,24,146,146,146,146,146,146,146,146,146,146,146,146,146,146,146,146,146,146,146,146,146,146,146,146,146,146,146,146,146,146,146,146,146,146,146,146,146,146,146,146,146,146,146,146,146,146,146,146,146,146,146,146,146,146,146,146,146,146,146,146,146,146,146,146,24742,16445,32464,17341,51710,146,43631,17714,
83,24,24,146,146,146,146,24,24,146,146,146,146,146,146,146,146,146,146,146,146,146,146,146,146,146,146,146,146,146,146,146,146,146,146,146,146,146,146,146,146,146,146,146,146,146,146,146,146,146,146,146,146,146,146,146,146,146,146,146,146,146,146,146,146,146,146,146,146,146,146,146,146,60522,146,20628,28602,146,146,146,16339,
84,24,24,146,146,146,146,24,24,146,146,146,146,146,146,146,146,146,146,146,146,146,146,146,146,146,146,146,146,146,146,146,146,146,146,146,146,146,146,146,146,146,146,146,146,146,146,146,146,146,146,146,146,146,146,146,146,146,146,146,146,146,146,146,146,146,146,146,146,146,146,146,146,51881,56362,146,16620,34619,22720,146,146,
85,24,24,146,146,146,146,24,24,146,146,146,146,146,146,146,146,146,146,146,146,146,146,146,146,146,146,146,146,146,146,146,146,146,146,146,146,146,146,146,146,146,146,146,146,146,146,146,146,146,146,146,146,146,146,146,146,146,146,146,146,146,146,146,146,146,146,146,146,146,146,146,146,14096,36769,46275,146,146,146,54377,146,
86,24,24,146,146,146,146,24,24,146,146,146,146,146,146,146,146,146,146,146,146,146,146,146,146,146,146,146,146,146,146,146,146,146,146,146,146,146,146,146,146,146,146,146,146,146,146,146,146,146,146,146,146,146,146,146,146,146,146,146,146,146,146,146,146,146,146,146,146,146,146,146,146,146,48399,146,36491,23026,37750,146,146,
87,24,24,146,146,146,146,24,24,146,146,146,146,146,146,146,146,146,146,146,146,146,146,146,146,146,146,146,146,146,146,146,146,146,146,146,146,146,146,146,146,146,146,146,146,146,146,146,146,146,146,146,146,146,146,146,146,146,146,146,146,146,146,146,146,146,146,146,146,146,146,146,146,32129,146,146,55822,17617,146,146,45773,
88,24,24,146,146,146,146,24,24,146,146,146,146,146,146,146,146,146,146,146,146,146,146,146,146,146,146,146,146,146,146,146,146,146,146,146,146,146,146,146,146,146,146,146,146,146,146,146,146,146,146,146,146,146,146,146,146,146,146,146,146,146,146,146,146,146,146,146,146,146,146,146,146,146,146,40753,16014,146,39195,39714,25541,
89,24,24,146,146,146,146,24,24,146,146,146,146,146,146,146,146,146,146,146,146,146,146,146,146,146,146,146,146,146,146,146,146,146,146,146,146,146,146,146,146,146,146,146,146,146,146,146,146,146,146,146,146,146,146,146,146,146,146,146,146,146,146,146,146,146,146,146,146,146,146,146,146,146,17785,146,10838,146,41497,146,51084,
90,24,24,146,146,146,146,24,24,146,146,146,146,146,146,146,146,146,146,146,146,146,146,146,146,146,146,146,146,146,146,146,146,146,146,146,146,146,146,146,146,146,146,146,146,146,146,146,146,146,146,146,146,146,146,146,146,146,146,146,146,146,146,146,146,146,146,146,146,146,146,146,146,33412,146,41969,146,146,660,146,146,
91,24,24,146,146,146,146,24,24,146,146,146,146,146,146,146,146,146,146,146,146,146,146,146,146,146,146,146,146,146,146,146,146,146,146,146,146,146,146,146,146,146,146,146,146,146,146,146,146,146,146,146,146,146,146,146,146,146,146,146,146,146,146,146,146,146,146,146,146,146,146,146,146,4203,146,41900,15748,20216,43524,13055,43016,
92,24,24,146,146,146,146,24,24,146,146,146,146,146,146,146,146,146,146,146,146,146,146,146,146,146,146,146,146,146,146,146,146,146,146,146,146,146,146,146,146,146,146,146,146,146,146,146,146,146,146,146,146,146,146,146,146,146,146,146,146,146,146,146,146,146,146,146,146,146,146,146,146,22115,146,34756,146,146,146,42028,55129,
93,24,24,146,146,146,146,24,24,146,146,146,146,146,146,146,146,146,146,146,146,146,146,146,146,146,146,146,146,146,146,14156,146,146,146,146,146,146,146,146,146,146,146,146,146,146,146,146,146,146,146,265,146,146,146,146,146,146,146,146,146,146,146,146,265,146,146,14156,146,146,146,146,146,18944,37845,15899,146,146,146,6069,146,
94,24,24,146,146,146,146,24,24,146,146,146,146,146,146,146,146,146,146,146,146,146,146,146,146,146,146,146,146,146,146,146,146,146,146,146,146,146,146,146,146,146,146,146,146,146,146,146,146,146,146,146,146,146,146,146,146,146,146,146,146,146,146,146,146,146,146,146,146,146,146,146,146,45008,42816,26836,30974,146,33429,146,26668,
95,24,24,146,146,146,146,24,24,146,146,146,3091,146,146,146,146,146,146,146,146,146,146,146,146,146,146,146,146,146,146,146,146,146,146,146,146,146,146,146,146,146,146,146,146,146,146,146,146,146,146,146,146,146,146,146,146,146,146,146,146,146,146,146,146,146,146,146,146,146,146,146,146,146,34398,27871,146,40170,17819,21329,56552,
96,24,24,146,146,146,146,24,24,146,146,146,146,146,146,146,146,146,146,146,146,146,146,146,146,146,146,146,146,146,146,146,146,146,146,146,146,146,146,146,146,146,146,146,146,146,146,146,146,146,146,146,146,146,146,146,146,146,146,146,146,146,146,146,146,146,146,146,146,146,146,146,146,146,31216,40867,13275,146,146,48618,36461,
97,24,24,146,146,146,146,24,24,146,146,146,146,146,146,146,146,146,146,146,146,146,146,146,146,146,146,146,146,146,146,146,146,146,146,146,146,146,146,146,146,146,146,146,146,146,146,146,146,146,146,146,146,146,146,146,146,146,146,146,146,146,146,146,146,146,146,146,146,146,146,146,146,47799,51199,146,146,7780,146,146,146,
98,24,24,146,146,146,146,24,24,146,146,146,146,146,146,146,146,146,146,146,146,146,146,146,146,146,146,146,146,146,146,146,146,146,146,146,146,146,146,146,146,146,146,146,146,146,146,146,146,146,146,146,146,146,146,146,146,146,146,146,146,146,146,146,146,146,146,146,146,146,146,146,146,146,54044,21136,41148,146,6222,1117,48910,
99,24,24,146,146,146,146,24,24,146,146,146,146,146,146,146,146,146,146,146,146,146,146,146,146,146,146,146,146,146,146,146,146,146,146,146,146,146,146,146,146,146,146,146,146,146,146,146,146,146,146,146,146,146,146,146,146,146,146,146,146,146,146,146,146,146,146,146,146,146,146,146,146,146,146,45333,31059,146,44952,146,38428,
100,24,24,146,146,146,146,24,24,146,146,146,146,146,146,146,146,146,146,146,146,146,146,146,146,146,146,146,146,146,146,146,146,146,146,146,146,146,146,146,146,146,146,146,146,146,146,146,146,146,146,146,146,146,146,146,146,146,146,146,146,146,146,146,146,146,146,146,146,146,146,146,146,39356,5944,28453,39022,6660,53642,42023,40959,
